(set-logic LIA)
(declare-fun coord_x0 () Int)
(declare-fun coord_x1 () Int)
(declare-fun coord_x2 () Int)
(declare-fun coord_x3 () Int)
(declare-fun coord_x4 () Int)
(declare-fun coord_x5 () Int)
(declare-fun coord_x6 () Int)
(declare-fun coord_x7 () Int)
(declare-fun coord_x8 () Int)
(declare-fun coord_x9 () Int)
(declare-fun coord_x10 () Int)
(declare-fun coord_x11 () Int)
(declare-fun coord_x12 () Int)
(declare-fun coord_x13 () Int)
(declare-fun coord_x14 () Int)
(declare-fun coord_x15 () Int)
(declare-fun coord_y0 () Int)
(declare-fun coord_y1 () Int)
(declare-fun coord_y2 () Int)
(declare-fun coord_y3 () Int)
(declare-fun coord_y4 () Int)
(declare-fun coord_y5 () Int)
(declare-fun coord_y6 () Int)
(declare-fun coord_y7 () Int)
(declare-fun coord_y8 () Int)
(declare-fun coord_y9 () Int)
(declare-fun coord_y10 () Int)
(declare-fun coord_y11 () Int)
(declare-fun coord_y12 () Int)
(declare-fun coord_y13 () Int)
(declare-fun coord_y14 () Int)
(declare-fun coord_y15 () Int)
(declare-fun l () Int)
(assert (and (>= coord_x0 0) (<= coord_x0 19)))
(assert (and (>= coord_x1 0) (<= coord_x1 19)))
(assert (and (>= coord_x2 0) (<= coord_x2 19)))
(assert (and (>= coord_x3 0) (<= coord_x3 19)))
(assert (and (>= coord_x4 0) (<= coord_x4 19)))
(assert (and (>= coord_x5 0) (<= coord_x5 19)))
(assert (and (>= coord_x6 0) (<= coord_x6 19)))
(assert (and (>= coord_x7 0) (<= coord_x7 19)))
(assert (and (>= coord_x8 0) (<= coord_x8 19)))
(assert (and (>= coord_x9 0) (<= coord_x9 19)))
(assert (and (>= coord_x10 0) (<= coord_x10 19)))
(assert (and (>= coord_x11 0) (<= coord_x11 19)))
(assert (and (>= coord_x12 0) (<= coord_x12 19)))
(assert (and (>= coord_x13 0) (<= coord_x13 19)))
(assert (and (>= coord_x14 0) (<= coord_x14 19)))
(assert (and (>= coord_x15 0) (<= coord_x15 19)))
(assert (and (>= coord_y0 0) (<= coord_y0 147)))
(assert (and (>= coord_y1 0) (<= coord_y1 147)))
(assert (and (>= coord_y2 0) (<= coord_y2 147)))
(assert (and (>= coord_y3 0) (<= coord_y3 147)))
(assert (and (>= coord_y4 0) (<= coord_y4 147)))
(assert (and (>= coord_y5 0) (<= coord_y5 147)))
(assert (and (>= coord_y6 0) (<= coord_y6 147)))
(assert (and (>= coord_y7 0) (<= coord_y7 147)))
(assert (and (>= coord_y8 0) (<= coord_y8 147)))
(assert (and (>= coord_y9 0) (<= coord_y9 147)))
(assert (and (>= coord_y10 0) (<= coord_y10 147)))
(assert (and (>= coord_y11 0) (<= coord_y11 147)))
(assert (and (>= coord_y12 0) (<= coord_y12 147)))
(assert (and (>= coord_y13 0) (<= coord_y13 147)))
(assert (and (>= coord_y14 0) (<= coord_y14 147)))
(assert (and (>= coord_y15 0) (<= coord_y15 147)))
(assert (and (>= l 22) (<= l 150)))
(assert (or (<= (+ coord_x0 3) coord_x1) (<= (+ coord_y0 3) coord_y1) (>= (- coord_x0 3) coord_x1) (>= (- coord_y0 4) coord_y1)))
(assert (or (<= (+ coord_x0 3) coord_x2) (<= (+ coord_y0 3) coord_y2) (>= (- coord_x0 3) coord_x2) (>= (- coord_y0 5) coord_y2)))
(assert (or (<= (+ coord_x0 3) coord_x3) (<= (+ coord_y0 3) coord_y3) (>= (- coord_x0 3) coord_x3) (>= (- coord_y0 6) coord_y3)))
(assert (or (<= (+ coord_x0 3) coord_x4) (<= (+ coord_y0 3) coord_y4) (>= (- coord_x0 3) coord_x4) (>= (- coord_y0 7) coord_y4)))
(assert (or (<= (+ coord_x0 3) coord_x5) (<= (+ coord_y0 3) coord_y5) (>= (- coord_x0 3) coord_x5) (>= (- coord_y0 8) coord_y5)))
(assert (or (<= (+ coord_x0 3) coord_x6) (<= (+ coord_y0 3) coord_y6) (>= (- coord_x0 3) coord_x6) (>= (- coord_y0 9) coord_y6)))
(assert (or (<= (+ coord_x0 3) coord_x7) (<= (+ coord_y0 3) coord_y7) (>= (- coord_x0 3) coord_x7) (>= (- coord_y0 10) coord_y7)))
(assert (or (<= (+ coord_x0 3) coord_x8) (<= (+ coord_y0 3) coord_y8) (>= (- coord_x0 3) coord_x8) (>= (- coord_y0 11) coord_y8)))
(assert (or (<= (+ coord_x0 3) coord_x9) (<= (+ coord_y0 3) coord_y9) (>= (- coord_x0 3) coord_x9) (>= (- coord_y0 12) coord_y9)))
(assert (or (<= (+ coord_x0 3) coord_x10) (<= (+ coord_y0 3) coord_y10) (>= (- coord_x0 3) coord_x10) (>= (- coord_y0 13) coord_y10)))
(assert (or (<= (+ coord_x0 3) coord_x11) (<= (+ coord_y0 3) coord_y11) (>= (- coord_x0 3) coord_x11) (>= (- coord_y0 14) coord_y11)))
(assert (or (<= (+ coord_x0 3) coord_x12) (<= (+ coord_y0 3) coord_y12) (>= (- coord_x0 3) coord_x12) (>= (- coord_y0 22) coord_y12)))
(assert (or (<= (+ coord_x0 3) coord_x13) (<= (+ coord_y0 3) coord_y13) (>= (- coord_x0 4) coord_x13) (>= (- coord_y0 3) coord_y13)))
(assert (or (<= (+ coord_x0 3) coord_x14) (<= (+ coord_y0 3) coord_y14) (>= (- coord_x0 4) coord_x14) (>= (- coord_y0 19) coord_y14)))
(assert (or (<= (+ coord_x0 3) coord_x15) (<= (+ coord_y0 3) coord_y15) (>= (- coord_x0 6) coord_x15) (>= (- coord_y0 4) coord_y15)))
(assert (or (<= (+ coord_x1 3) coord_x2) (<= (+ coord_y1 4) coord_y2) (>= (- coord_x1 3) coord_x2) (>= (- coord_y1 5) coord_y2)))
(assert (or (<= (+ coord_x1 3) coord_x3) (<= (+ coord_y1 4) coord_y3) (>= (- coord_x1 3) coord_x3) (>= (- coord_y1 6) coord_y3)))
(assert (or (<= (+ coord_x1 3) coord_x4) (<= (+ coord_y1 4) coord_y4) (>= (- coord_x1 3) coord_x4) (>= (- coord_y1 7) coord_y4)))
(assert (or (<= (+ coord_x1 3) coord_x5) (<= (+ coord_y1 4) coord_y5) (>= (- coord_x1 3) coord_x5) (>= (- coord_y1 8) coord_y5)))
(assert (or (<= (+ coord_x1 3) coord_x6) (<= (+ coord_y1 4) coord_y6) (>= (- coord_x1 3) coord_x6) (>= (- coord_y1 9) coord_y6)))
(assert (or (<= (+ coord_x1 3) coord_x7) (<= (+ coord_y1 4) coord_y7) (>= (- coord_x1 3) coord_x7) (>= (- coord_y1 10) coord_y7)))
(assert (or (<= (+ coord_x1 3) coord_x8) (<= (+ coord_y1 4) coord_y8) (>= (- coord_x1 3) coord_x8) (>= (- coord_y1 11) coord_y8)))
(assert (or (<= (+ coord_x1 3) coord_x9) (<= (+ coord_y1 4) coord_y9) (>= (- coord_x1 3) coord_x9) (>= (- coord_y1 12) coord_y9)))
(assert (or (<= (+ coord_x1 3) coord_x10) (<= (+ coord_y1 4) coord_y10) (>= (- coord_x1 3) coord_x10) (>= (- coord_y1 13) coord_y10)))
(assert (or (<= (+ coord_x1 3) coord_x11) (<= (+ coord_y1 4) coord_y11) (>= (- coord_x1 3) coord_x11) (>= (- coord_y1 14) coord_y11)))
(assert (or (<= (+ coord_x1 3) coord_x12) (<= (+ coord_y1 4) coord_y12) (>= (- coord_x1 3) coord_x12) (>= (- coord_y1 22) coord_y12)))
(assert (or (<= (+ coord_x1 3) coord_x13) (<= (+ coord_y1 4) coord_y13) (>= (- coord_x1 4) coord_x13) (>= (- coord_y1 3) coord_y13)))
(assert (or (<= (+ coord_x1 3) coord_x14) (<= (+ coord_y1 4) coord_y14) (>= (- coord_x1 4) coord_x14) (>= (- coord_y1 19) coord_y14)))
(assert (or (<= (+ coord_x1 3) coord_x15) (<= (+ coord_y1 4) coord_y15) (>= (- coord_x1 6) coord_x15) (>= (- coord_y1 4) coord_y15)))
(assert (or (<= (+ coord_x2 3) coord_x3) (<= (+ coord_y2 5) coord_y3) (>= (- coord_x2 3) coord_x3) (>= (- coord_y2 6) coord_y3)))
(assert (or (<= (+ coord_x2 3) coord_x4) (<= (+ coord_y2 5) coord_y4) (>= (- coord_x2 3) coord_x4) (>= (- coord_y2 7) coord_y4)))
(assert (or (<= (+ coord_x2 3) coord_x5) (<= (+ coord_y2 5) coord_y5) (>= (- coord_x2 3) coord_x5) (>= (- coord_y2 8) coord_y5)))
(assert (or (<= (+ coord_x2 3) coord_x6) (<= (+ coord_y2 5) coord_y6) (>= (- coord_x2 3) coord_x6) (>= (- coord_y2 9) coord_y6)))
(assert (or (<= (+ coord_x2 3) coord_x7) (<= (+ coord_y2 5) coord_y7) (>= (- coord_x2 3) coord_x7) (>= (- coord_y2 10) coord_y7)))
(assert (or (<= (+ coord_x2 3) coord_x8) (<= (+ coord_y2 5) coord_y8) (>= (- coord_x2 3) coord_x8) (>= (- coord_y2 11) coord_y8)))
(assert (or (<= (+ coord_x2 3) coord_x9) (<= (+ coord_y2 5) coord_y9) (>= (- coord_x2 3) coord_x9) (>= (- coord_y2 12) coord_y9)))
(assert (or (<= (+ coord_x2 3) coord_x10) (<= (+ coord_y2 5) coord_y10) (>= (- coord_x2 3) coord_x10) (>= (- coord_y2 13) coord_y10)))
(assert (or (<= (+ coord_x2 3) coord_x11) (<= (+ coord_y2 5) coord_y11) (>= (- coord_x2 3) coord_x11) (>= (- coord_y2 14) coord_y11)))
(assert (or (<= (+ coord_x2 3) coord_x12) (<= (+ coord_y2 5) coord_y12) (>= (- coord_x2 3) coord_x12) (>= (- coord_y2 22) coord_y12)))
(assert (or (<= (+ coord_x2 3) coord_x13) (<= (+ coord_y2 5) coord_y13) (>= (- coord_x2 4) coord_x13) (>= (- coord_y2 3) coord_y13)))
(assert (or (<= (+ coord_x2 3) coord_x14) (<= (+ coord_y2 5) coord_y14) (>= (- coord_x2 4) coord_x14) (>= (- coord_y2 19) coord_y14)))
(assert (or (<= (+ coord_x2 3) coord_x15) (<= (+ coord_y2 5) coord_y15) (>= (- coord_x2 6) coord_x15) (>= (- coord_y2 4) coord_y15)))
(assert (or (<= (+ coord_x3 3) coord_x4) (<= (+ coord_y3 6) coord_y4) (>= (- coord_x3 3) coord_x4) (>= (- coord_y3 7) coord_y4)))
(assert (or (<= (+ coord_x3 3) coord_x5) (<= (+ coord_y3 6) coord_y5) (>= (- coord_x3 3) coord_x5) (>= (- coord_y3 8) coord_y5)))
(assert (or (<= (+ coord_x3 3) coord_x6) (<= (+ coord_y3 6) coord_y6) (>= (- coord_x3 3) coord_x6) (>= (- coord_y3 9) coord_y6)))
(assert (or (<= (+ coord_x3 3) coord_x7) (<= (+ coord_y3 6) coord_y7) (>= (- coord_x3 3) coord_x7) (>= (- coord_y3 10) coord_y7)))
(assert (or (<= (+ coord_x3 3) coord_x8) (<= (+ coord_y3 6) coord_y8) (>= (- coord_x3 3) coord_x8) (>= (- coord_y3 11) coord_y8)))
(assert (or (<= (+ coord_x3 3) coord_x9) (<= (+ coord_y3 6) coord_y9) (>= (- coord_x3 3) coord_x9) (>= (- coord_y3 12) coord_y9)))
(assert (or (<= (+ coord_x3 3) coord_x10) (<= (+ coord_y3 6) coord_y10) (>= (- coord_x3 3) coord_x10) (>= (- coord_y3 13) coord_y10)))
(assert (or (<= (+ coord_x3 3) coord_x11) (<= (+ coord_y3 6) coord_y11) (>= (- coord_x3 3) coord_x11) (>= (- coord_y3 14) coord_y11)))
(assert (or (<= (+ coord_x3 3) coord_x12) (<= (+ coord_y3 6) coord_y12) (>= (- coord_x3 3) coord_x12) (>= (- coord_y3 22) coord_y12)))
(assert (or (<= (+ coord_x3 3) coord_x13) (<= (+ coord_y3 6) coord_y13) (>= (- coord_x3 4) coord_x13) (>= (- coord_y3 3) coord_y13)))
(assert (or (<= (+ coord_x3 3) coord_x14) (<= (+ coord_y3 6) coord_y14) (>= (- coord_x3 4) coord_x14) (>= (- coord_y3 19) coord_y14)))
(assert (or (<= (+ coord_x3 3) coord_x15) (<= (+ coord_y3 6) coord_y15) (>= (- coord_x3 6) coord_x15) (>= (- coord_y3 4) coord_y15)))
(assert (or (<= (+ coord_x4 3) coord_x5) (<= (+ coord_y4 7) coord_y5) (>= (- coord_x4 3) coord_x5) (>= (- coord_y4 8) coord_y5)))
(assert (or (<= (+ coord_x4 3) coord_x6) (<= (+ coord_y4 7) coord_y6) (>= (- coord_x4 3) coord_x6) (>= (- coord_y4 9) coord_y6)))
(assert (or (<= (+ coord_x4 3) coord_x7) (<= (+ coord_y4 7) coord_y7) (>= (- coord_x4 3) coord_x7) (>= (- coord_y4 10) coord_y7)))
(assert (or (<= (+ coord_x4 3) coord_x8) (<= (+ coord_y4 7) coord_y8) (>= (- coord_x4 3) coord_x8) (>= (- coord_y4 11) coord_y8)))
(assert (or (<= (+ coord_x4 3) coord_x9) (<= (+ coord_y4 7) coord_y9) (>= (- coord_x4 3) coord_x9) (>= (- coord_y4 12) coord_y9)))
(assert (or (<= (+ coord_x4 3) coord_x10) (<= (+ coord_y4 7) coord_y10) (>= (- coord_x4 3) coord_x10) (>= (- coord_y4 13) coord_y10)))
(assert (or (<= (+ coord_x4 3) coord_x11) (<= (+ coord_y4 7) coord_y11) (>= (- coord_x4 3) coord_x11) (>= (- coord_y4 14) coord_y11)))
(assert (or (<= (+ coord_x4 3) coord_x12) (<= (+ coord_y4 7) coord_y12) (>= (- coord_x4 3) coord_x12) (>= (- coord_y4 22) coord_y12)))
(assert (or (<= (+ coord_x4 3) coord_x13) (<= (+ coord_y4 7) coord_y13) (>= (- coord_x4 4) coord_x13) (>= (- coord_y4 3) coord_y13)))
(assert (or (<= (+ coord_x4 3) coord_x14) (<= (+ coord_y4 7) coord_y14) (>= (- coord_x4 4) coord_x14) (>= (- coord_y4 19) coord_y14)))
(assert (or (<= (+ coord_x4 3) coord_x15) (<= (+ coord_y4 7) coord_y15) (>= (- coord_x4 6) coord_x15) (>= (- coord_y4 4) coord_y15)))
(assert (or (<= (+ coord_x5 3) coord_x6) (<= (+ coord_y5 8) coord_y6) (>= (- coord_x5 3) coord_x6) (>= (- coord_y5 9) coord_y6)))
(assert (or (<= (+ coord_x5 3) coord_x7) (<= (+ coord_y5 8) coord_y7) (>= (- coord_x5 3) coord_x7) (>= (- coord_y5 10) coord_y7)))
(assert (or (<= (+ coord_x5 3) coord_x8) (<= (+ coord_y5 8) coord_y8) (>= (- coord_x5 3) coord_x8) (>= (- coord_y5 11) coord_y8)))
(assert (or (<= (+ coord_x5 3) coord_x9) (<= (+ coord_y5 8) coord_y9) (>= (- coord_x5 3) coord_x9) (>= (- coord_y5 12) coord_y9)))
(assert (or (<= (+ coord_x5 3) coord_x10) (<= (+ coord_y5 8) coord_y10) (>= (- coord_x5 3) coord_x10) (>= (- coord_y5 13) coord_y10)))
(assert (or (<= (+ coord_x5 3) coord_x11) (<= (+ coord_y5 8) coord_y11) (>= (- coord_x5 3) coord_x11) (>= (- coord_y5 14) coord_y11)))
(assert (or (<= (+ coord_x5 3) coord_x12) (<= (+ coord_y5 8) coord_y12) (>= (- coord_x5 3) coord_x12) (>= (- coord_y5 22) coord_y12)))
(assert (or (<= (+ coord_x5 3) coord_x13) (<= (+ coord_y5 8) coord_y13) (>= (- coord_x5 4) coord_x13) (>= (- coord_y5 3) coord_y13)))
(assert (or (<= (+ coord_x5 3) coord_x14) (<= (+ coord_y5 8) coord_y14) (>= (- coord_x5 4) coord_x14) (>= (- coord_y5 19) coord_y14)))
(assert (or (<= (+ coord_x5 3) coord_x15) (<= (+ coord_y5 8) coord_y15) (>= (- coord_x5 6) coord_x15) (>= (- coord_y5 4) coord_y15)))
(assert (or (<= (+ coord_x6 3) coord_x7) (<= (+ coord_y6 9) coord_y7) (>= (- coord_x6 3) coord_x7) (>= (- coord_y6 10) coord_y7)))
(assert (or (<= (+ coord_x6 3) coord_x8) (<= (+ coord_y6 9) coord_y8) (>= (- coord_x6 3) coord_x8) (>= (- coord_y6 11) coord_y8)))
(assert (or (<= (+ coord_x6 3) coord_x9) (<= (+ coord_y6 9) coord_y9) (>= (- coord_x6 3) coord_x9) (>= (- coord_y6 12) coord_y9)))
(assert (or (<= (+ coord_x6 3) coord_x10) (<= (+ coord_y6 9) coord_y10) (>= (- coord_x6 3) coord_x10) (>= (- coord_y6 13) coord_y10)))
(assert (or (<= (+ coord_x6 3) coord_x11) (<= (+ coord_y6 9) coord_y11) (>= (- coord_x6 3) coord_x11) (>= (- coord_y6 14) coord_y11)))
(assert (or (<= (+ coord_x6 3) coord_x12) (<= (+ coord_y6 9) coord_y12) (>= (- coord_x6 3) coord_x12) (>= (- coord_y6 22) coord_y12)))
(assert (or (<= (+ coord_x6 3) coord_x13) (<= (+ coord_y6 9) coord_y13) (>= (- coord_x6 4) coord_x13) (>= (- coord_y6 3) coord_y13)))
(assert (or (<= (+ coord_x6 3) coord_x14) (<= (+ coord_y6 9) coord_y14) (>= (- coord_x6 4) coord_x14) (>= (- coord_y6 19) coord_y14)))
(assert (or (<= (+ coord_x6 3) coord_x15) (<= (+ coord_y6 9) coord_y15) (>= (- coord_x6 6) coord_x15) (>= (- coord_y6 4) coord_y15)))
(assert (or (<= (+ coord_x7 3) coord_x8) (<= (+ coord_y7 10) coord_y8) (>= (- coord_x7 3) coord_x8) (>= (- coord_y7 11) coord_y8)))
(assert (or (<= (+ coord_x7 3) coord_x9) (<= (+ coord_y7 10) coord_y9) (>= (- coord_x7 3) coord_x9) (>= (- coord_y7 12) coord_y9)))
(assert (or (<= (+ coord_x7 3) coord_x10) (<= (+ coord_y7 10) coord_y10) (>= (- coord_x7 3) coord_x10) (>= (- coord_y7 13) coord_y10)))
(assert (or (<= (+ coord_x7 3) coord_x11) (<= (+ coord_y7 10) coord_y11) (>= (- coord_x7 3) coord_x11) (>= (- coord_y7 14) coord_y11)))
(assert (or (<= (+ coord_x7 3) coord_x12) (<= (+ coord_y7 10) coord_y12) (>= (- coord_x7 3) coord_x12) (>= (- coord_y7 22) coord_y12)))
(assert (or (<= (+ coord_x7 3) coord_x13) (<= (+ coord_y7 10) coord_y13) (>= (- coord_x7 4) coord_x13) (>= (- coord_y7 3) coord_y13)))
(assert (or (<= (+ coord_x7 3) coord_x14) (<= (+ coord_y7 10) coord_y14) (>= (- coord_x7 4) coord_x14) (>= (- coord_y7 19) coord_y14)))
(assert (or (<= (+ coord_x7 3) coord_x15) (<= (+ coord_y7 10) coord_y15) (>= (- coord_x7 6) coord_x15) (>= (- coord_y7 4) coord_y15)))
(assert (or (<= (+ coord_x8 3) coord_x9) (<= (+ coord_y8 11) coord_y9) (>= (- coord_x8 3) coord_x9) (>= (- coord_y8 12) coord_y9)))
(assert (or (<= (+ coord_x8 3) coord_x10) (<= (+ coord_y8 11) coord_y10) (>= (- coord_x8 3) coord_x10) (>= (- coord_y8 13) coord_y10)))
(assert (or (<= (+ coord_x8 3) coord_x11) (<= (+ coord_y8 11) coord_y11) (>= (- coord_x8 3) coord_x11) (>= (- coord_y8 14) coord_y11)))
(assert (or (<= (+ coord_x8 3) coord_x12) (<= (+ coord_y8 11) coord_y12) (>= (- coord_x8 3) coord_x12) (>= (- coord_y8 22) coord_y12)))
(assert (or (<= (+ coord_x8 3) coord_x13) (<= (+ coord_y8 11) coord_y13) (>= (- coord_x8 4) coord_x13) (>= (- coord_y8 3) coord_y13)))
(assert (or (<= (+ coord_x8 3) coord_x14) (<= (+ coord_y8 11) coord_y14) (>= (- coord_x8 4) coord_x14) (>= (- coord_y8 19) coord_y14)))
(assert (or (<= (+ coord_x8 3) coord_x15) (<= (+ coord_y8 11) coord_y15) (>= (- coord_x8 6) coord_x15) (>= (- coord_y8 4) coord_y15)))
(assert (or (<= (+ coord_x9 3) coord_x10) (<= (+ coord_y9 12) coord_y10) (>= (- coord_x9 3) coord_x10) (>= (- coord_y9 13) coord_y10)))
(assert (or (<= (+ coord_x9 3) coord_x11) (<= (+ coord_y9 12) coord_y11) (>= (- coord_x9 3) coord_x11) (>= (- coord_y9 14) coord_y11)))
(assert (or (<= (+ coord_x9 3) coord_x12) (<= (+ coord_y9 12) coord_y12) (>= (- coord_x9 3) coord_x12) (>= (- coord_y9 22) coord_y12)))
(assert (or (<= (+ coord_x9 3) coord_x13) (<= (+ coord_y9 12) coord_y13) (>= (- coord_x9 4) coord_x13) (>= (- coord_y9 3) coord_y13)))
(assert (or (<= (+ coord_x9 3) coord_x14) (<= (+ coord_y9 12) coord_y14) (>= (- coord_x9 4) coord_x14) (>= (- coord_y9 19) coord_y14)))
(assert (or (<= (+ coord_x9 3) coord_x15) (<= (+ coord_y9 12) coord_y15) (>= (- coord_x9 6) coord_x15) (>= (- coord_y9 4) coord_y15)))
(assert (or (<= (+ coord_x10 3) coord_x11) (<= (+ coord_y10 13) coord_y11) (>= (- coord_x10 3) coord_x11) (>= (- coord_y10 14) coord_y11)))
(assert (or (<= (+ coord_x10 3) coord_x12) (<= (+ coord_y10 13) coord_y12) (>= (- coord_x10 3) coord_x12) (>= (- coord_y10 22) coord_y12)))
(assert (or (<= (+ coord_x10 3) coord_x13) (<= (+ coord_y10 13) coord_y13) (>= (- coord_x10 4) coord_x13) (>= (- coord_y10 3) coord_y13)))
(assert (or (<= (+ coord_x10 3) coord_x14) (<= (+ coord_y10 13) coord_y14) (>= (- coord_x10 4) coord_x14) (>= (- coord_y10 19) coord_y14)))
(assert (or (<= (+ coord_x10 3) coord_x15) (<= (+ coord_y10 13) coord_y15) (>= (- coord_x10 6) coord_x15) (>= (- coord_y10 4) coord_y15)))
(assert (or (<= (+ coord_x11 3) coord_x12) (<= (+ coord_y11 14) coord_y12) (>= (- coord_x11 3) coord_x12) (>= (- coord_y11 22) coord_y12)))
(assert (or (<= (+ coord_x11 3) coord_x13) (<= (+ coord_y11 14) coord_y13) (>= (- coord_x11 4) coord_x13) (>= (- coord_y11 3) coord_y13)))
(assert (or (<= (+ coord_x11 3) coord_x14) (<= (+ coord_y11 14) coord_y14) (>= (- coord_x11 4) coord_x14) (>= (- coord_y11 19) coord_y14)))
(assert (or (<= (+ coord_x11 3) coord_x15) (<= (+ coord_y11 14) coord_y15) (>= (- coord_x11 6) coord_x15) (>= (- coord_y11 4) coord_y15)))
(assert (or (<= (+ coord_x12 3) coord_x13) (<= (+ coord_y12 22) coord_y13) (>= (- coord_x12 4) coord_x13) (>= (- coord_y12 3) coord_y13)))
(assert (or (<= (+ coord_x12 3) coord_x14) (<= (+ coord_y12 22) coord_y14) (>= (- coord_x12 4) coord_x14) (>= (- coord_y12 19) coord_y14)))
(assert (or (<= (+ coord_x12 3) coord_x15) (<= (+ coord_y12 22) coord_y15) (>= (- coord_x12 6) coord_x15) (>= (- coord_y12 4) coord_y15)))
(assert (or (<= (+ coord_x13 4) coord_x14) (<= (+ coord_y13 3) coord_y14) (>= (- coord_x13 4) coord_x14) (>= (- coord_y13 19) coord_y14)))
(assert (or (<= (+ coord_x13 4) coord_x15) (<= (+ coord_y13 3) coord_y15) (>= (- coord_x13 6) coord_x15) (>= (- coord_y13 4) coord_y15)))
(assert (or (<= (+ coord_x14 4) coord_x15) (<= (+ coord_y14 19) coord_y15) (>= (- coord_x14 6) coord_x15) (>= (- coord_y14 4) coord_y15)))
(assert (and (<= (+ coord_x0 3) 22) (<= (+ coord_y0 3) l)))
(assert (and (<= (+ coord_x1 3) 22) (<= (+ coord_y1 4) l)))
(assert (and (<= (+ coord_x2 3) 22) (<= (+ coord_y2 5) l)))
(assert (and (<= (+ coord_x3 3) 22) (<= (+ coord_y3 6) l)))
(assert (and (<= (+ coord_x4 3) 22) (<= (+ coord_y4 7) l)))
(assert (and (<= (+ coord_x5 3) 22) (<= (+ coord_y5 8) l)))
(assert (and (<= (+ coord_x6 3) 22) (<= (+ coord_y6 9) l)))
(assert (and (<= (+ coord_x7 3) 22) (<= (+ coord_y7 10) l)))
(assert (and (<= (+ coord_x8 3) 22) (<= (+ coord_y8 11) l)))
(assert (and (<= (+ coord_x9 3) 22) (<= (+ coord_y9 12) l)))
(assert (and (<= (+ coord_x10 3) 22) (<= (+ coord_y10 13) l)))
(assert (and (<= (+ coord_x11 3) 22) (<= (+ coord_y11 14) l)))
(assert (and (<= (+ coord_x12 3) 22) (<= (+ coord_y12 22) l)))
(assert (and (<= (+ coord_x13 4) 22) (<= (+ coord_y13 3) l)))
(assert (and (<= (+ coord_x14 4) 22) (<= (+ coord_y14 19) l)))
(assert (and (<= (+ coord_x15 6) 22) (<= (+ coord_y15 4) l)))
(check-sat)
(get-model)
